p cnf 250 597
1 0
-2 0
-3 0
-4 0
-5 0
-6 0
-7 0
-8 0
-9 0
-10 0
-11 0
1 -12 0
12 -1 0
13 14 0
15 14 0
16 14 0
-13 -15 -16 -14 0
-2 14 -17 0
2 -14 -17 0
17 -14 -2 0
2 14 17 0
-17 0
15 18 0
16 18 0
-15 -16 -18 0
-19 18 -20 0
19 -18 -20 0
20 -18 -19 0
19 18 20 0
-20 0
-21 18 -22 0
21 -18 -22 0
22 -18 -21 0
21 18 22 0
-22 0
13 23 0
15 23 0
16 23 0
24 23 0
25 23 0
-26 0
-3 23 -27 0
3 -23 -27 0
27 -23 -3 0
3 23 27 0
-27 0
13 28 0
15 28 0
16 28 0
25 28 0
-29 0
-30 28 -31 0
30 -28 -31 0
31 -28 -30 0
30 28 31 0
-31 0
32 33 0
34 33 0
35 33 0
36 33 0
37 33 0
38 33 0
-39 0
-4 33 -40 0
4 -33 -40 0
40 -33 -4 0
4 33 40 0
-40 0
34 41 0
35 41 0
36 41 0
37 41 0
38 41 0
-42 0
-43 41 -44 0
43 -41 -44 0
44 -41 -43 0
43 41 44 0
-44 0
35 45 0
36 45 0
37 45 0
38 45 0
-46 0
-47 45 -48 0
47 -45 -48 0
48 -45 -47 0
47 45 48 0
-48 0
-49 45 -50 0
49 -45 -50 0
50 -45 -49 0
49 45 50 0
-50 0
37 51 0
38 51 0
35 51 0
36 51 0
-52 0
-53 51 -54 0
53 -51 -54 0
54 -51 -53 0
53 51 54 0
-54 0
-55 45 -56 0
55 -45 -56 0
56 -45 -55 0
55 45 56 0
-56 0
57 58 0
59 58 0
60 58 0
61 58 0
62 58 0
63 58 0
-64 0
-5 58 -65 0
5 -58 -65 0
65 -58 -5 0
5 58 65 0
-65 0
59 66 0
60 66 0
61 66 0
62 66 0
63 66 0
-67 0
-68 66 -69 0
68 -66 -69 0
69 -66 -68 0
68 66 69 0
-69 0
60 70 0
61 70 0
62 70 0
63 70 0
-71 0
-72 70 -73 0
72 -70 -73 0
73 -70 -72 0
72 70 73 0
-73 0
-74 70 -75 0
74 -70 -75 0
75 -70 -74 0
74 70 75 0
-75 0
-76 70 -77 0
76 -70 -77 0
77 -70 -76 0
76 70 77 0
-77 0
-78 70 -79 0
78 -70 -79 0
79 -70 -78 0
78 70 79 0
-79 0
12 80 0
81 80 0
82 80 0
83 80 0
-84 0
-6 80 -85 0
6 -80 -85 0
85 -80 -6 0
6 80 85 0
-85 0
12 86 0
82 86 0
83 86 0
-12 -82 -83 -86 0
-87 86 -88 0
87 -86 -88 0
88 -86 -87 0
87 86 88 0
-88 0
12 89 0
83 89 0
-12 -83 -89 0
-90 89 -91 0
90 -89 -91 0
91 -89 -90 0
90 89 91 0
-91 0
92 93 0
94 93 0
95 93 0
96 93 0
97 93 0
98 93 0
-99 0
-7 93 -100 0
7 -93 -100 0
100 -93 -7 0
7 93 100 0
-100 0
94 101 0
95 101 0
96 101 0
97 101 0
98 101 0
-102 0
-103 101 -104 0
103 -101 -104 0
104 -101 -103 0
103 101 104 0
-104 0
95 105 0
96 105 0
97 105 0
98 105 0
-106 0
-107 105 -108 0
107 -105 -108 0
108 -105 -107 0
107 105 108 0
-108 0
96 109 0
97 109 0
98 109 0
-96 -97 -98 -109 0
-110 109 -111 0
110 -109 -111 0
111 -109 -110 0
110 109 111 0
-111 0
-112 109 -113 0
112 -109 -113 0
113 -109 -112 0
112 109 113 0
-113 0
-114 109 -115 0
114 -109 -115 0
115 -109 -114 0
114 109 115 0
-115 0
12 116 0
82 116 0
83 116 0
117 116 0
118 116 0
-119 0
-8 116 -120 0
8 -116 -120 0
120 -116 -8 0
8 116 120 0
-120 0
12 121 0
82 121 0
83 121 0
118 121 0
-122 0
-123 121 -124 0
123 -121 -124 0
124 -121 -123 0
123 121 124 0
-124 0
95 125 0
96 125 0
97 125 0
98 125 0
126 125 0
127 125 0
-128 0
-9 125 -129 0
9 -125 -129 0
129 -125 -9 0
9 125 129 0
-129 0
95 130 0
96 130 0
97 130 0
98 130 0
127 130 0
-131 0
-132 130 -133 0
132 -130 -133 0
133 -130 -132 0
132 130 133 0
-133 0
60 134 0
61 134 0
62 134 0
63 134 0
135 134 0
136 134 0
137 134 0
138 134 0
-139 0
-10 134 -140 0
10 -134 -140 0
140 -134 -10 0
10 134 140 0
-140 0
60 141 0
61 141 0
62 141 0
63 141 0
136 141 0
137 141 0
138 141 0
-142 0
-143 141 -144 0
143 -141 -144 0
144 -141 -143 0
143 141 144 0
-144 0
60 145 0
61 145 0
62 145 0
63 145 0
137 145 0
138 145 0
-146 0
-147 145 -148 0
147 -145 -148 0
148 -145 -147 0
147 145 148 0
-148 0
60 149 0
61 149 0
62 149 0
63 149 0
138 149 0
-150 0
-151 149 -152 0
151 -149 -152 0
152 -149 -151 0
151 149 152 0
-152 0
15 153 0
16 153 0
154 153 0
155 153 0
156 153 0
-157 0
-11 153 -158 0
11 -153 -158 0
158 -153 -11 0
11 153 158 0
-158 0
15 159 0
16 159 0
155 159 0
156 159 0
-160 0
-161 159 -162 0
161 -159 -162 0
162 -159 -161 0
161 159 162 0
-162 0
15 163 0
16 163 0
156 163 0
-15 -16 -156 -163 0
-164 163 -165 0
164 -163 -165 0
165 -163 -164 0
164 163 165 0
-165 0
-12 166 -167 0
12 -166 -167 0
-12 -166 167 0
12 166 167 0
-167 0
-13 168 -169 0
13 -168 -169 0
-13 -168 169 0
13 168 169 0
-169 0
-15 170 -171 0
15 -170 -171 0
-15 -170 171 0
15 170 171 0
-171 0
-16 172 -173 0
16 -172 -173 0
-16 -172 173 0
16 172 173 0
-173 0
-24 174 -175 0
24 -174 -175 0
-24 -174 175 0
24 174 175 0
-175 0
-25 176 -177 0
25 -176 -177 0
-25 -176 177 0
25 176 177 0
-177 0
-32 178 -179 0
32 -178 -179 0
-32 -178 179 0
32 178 179 0
-179 0
-34 180 -181 0
34 -180 -181 0
-34 -180 181 0
34 180 181 0
-181 0
-35 182 -183 0
35 -182 -183 0
-35 -182 183 0
35 182 183 0
-183 0
-36 184 -185 0
36 -184 -185 0
-36 -184 185 0
36 184 185 0
-185 0
-37 186 -187 0
37 -186 -187 0
-37 -186 187 0
37 186 187 0
-187 0
-38 188 -189 0
38 -188 -189 0
-38 -188 189 0
38 188 189 0
-189 0
-57 190 -191 0
57 -190 -191 0
-57 -190 191 0
57 190 191 0
-191 0
-59 192 -193 0
59 -192 -193 0
-59 -192 193 0
59 192 193 0
-193 0
-60 194 -195 0
60 -194 -195 0
-60 -194 195 0
60 194 195 0
-195 0
-61 196 -197 0
61 -196 -197 0
-61 -196 197 0
61 196 197 0
-197 0
-62 198 -199 0
62 -198 -199 0
-62 -198 199 0
62 198 199 0
-199 0
-63 200 -201 0
63 -200 -201 0
-63 -200 201 0
63 200 201 0
-201 0
-81 202 -203 0
81 -202 -203 0
-81 -202 203 0
81 202 203 0
-203 0
-82 204 -205 0
82 -204 -205 0
-82 -204 205 0
82 204 205 0
-205 0
-83 206 -207 0
83 -206 -207 0
-83 -206 207 0
83 206 207 0
-207 0
-92 208 -209 0
92 -208 -209 0
-92 -208 209 0
92 208 209 0
-209 0
-94 210 -211 0
94 -210 -211 0
-94 -210 211 0
94 210 211 0
-211 0
-95 212 -213 0
95 -212 -213 0
-95 -212 213 0
95 212 213 0
-213 0
-96 214 -215 0
96 -214 -215 0
-96 -214 215 0
96 214 215 0
-215 0
-97 216 -217 0
97 -216 -217 0
-97 -216 217 0
97 216 217 0
-217 0
-98 218 -219 0
98 -218 -219 0
-98 -218 219 0
98 218 219 0
-219 0
-117 220 -221 0
117 -220 -221 0
-117 -220 221 0
117 220 221 0
-221 0
-118 222 -223 0
118 -222 -223 0
-118 -222 223 0
118 222 223 0
-223 0
-126 224 -225 0
126 -224 -225 0
-126 -224 225 0
126 224 225 0
-225 0
-127 226 -227 0
127 -226 -227 0
-127 -226 227 0
127 226 227 0
-227 0
-135 228 -229 0
135 -228 -229 0
-135 -228 229 0
135 228 229 0
-229 0
-136 230 -231 0
136 -230 -231 0
-136 -230 231 0
136 230 231 0
-231 0
-137 232 -233 0
137 -232 -233 0
-137 -232 233 0
137 232 233 0
-233 0
-138 234 -235 0
138 -234 -235 0
-138 -234 235 0
138 234 235 0
-235 0
-154 236 -237 0
154 -236 -237 0
-154 -236 237 0
154 236 237 0
-237 0
-155 238 -239 0
155 -238 -239 0
-155 -238 239 0
155 238 239 0
-239 0
-156 240 -241 0
156 -240 -241 0
-156 -240 241 0
156 240 241 0
-241 0
-242 -166 0
168 -242 0
170 -242 0
-242 -172 0
-242 -174 0
176 -242 0
-242 -178 0
-242 -180 0
182 -242 0
-242 -184 0
-242 -186 0
188 -242 0
190 -242 0
-242 -192 0
-242 -194 0
-242 -196 0
-242 -198 0
200 -242 0
-242 -202 0
-242 -204 0
206 -242 0
208 -242 0
-242 -210 0
-242 -212 0
214 -242 0
-242 -216 0
218 -242 0
220 -242 0
222 -242 0
-242 -224 0
226 -242 0
-242 -228 0
-242 -230 0
-242 -232 0
234 -242 0
236 -242 0
238 -242 0
-242 -240 0
242 0
-243 0
-244 0
-245 0
-246 0
-247 0
-248 0
-249 0
-250 0
